&BANDS
 outdir   = './out/',
 prefix   = 'mos2',
 filband  = 'mos2.bands',
 lsym     = .true.
/
