&CONTROL
  calculation = 'bands'
  etot_conv_thr =   3.0000000000d-05
  forc_conv_thr =   1.0000000000d-04
  outdir = './out/'
  prefix = 'mos2soc'
  pseudo_dir = './'
  tprnfor = .true.
  tstress = .true.
  verbosity = 'high'
/
&SYSTEM
  degauss =   2.0000000000d-02
  ecutrho =   2.8000000000d+02
  ecutwfc =   3.5000000000d+01
  ibrav = 0
  nat = 3
  ntyp = 2
  occupations = 'smearing'
  smearing = 'cold'
  nbnd = 104
/
&ELECTRONS
  conv_thr =   6.0000000000d-10
  electron_maxstep = 80
  mixing_beta =   4.0000000000d-01
/
ATOMIC_SPECIES
Mo     95.95000  Mo.rel-pbesol-spn-rrkjus_psl.1.0.0.UPF
S      32.07000  S.rel-pbesol-n-rrkjus_psl.1.0.0.UPF
ATOMIC_POSITIONS crystal
Mo           0.0000000000       0.0000000000       0.0000000000
S            0.3333333300       0.6666666700       0.0897320000
S            0.3333333300       0.6666666700       0.9102680000

CELL_PARAMETERS angstrom
      3.1903153900       0.0000000000       0.0000000000
     -1.5951576950       2.7628941738       0.0000000000
      0.0000000000       0.0000000000      17.4395020000
K_POINTS crystal_b
4
 0.0000 0.0000 0.0 40  ! Gamma
 0.5000 0.0000 0.0 30  ! M
 0.3333 0.3333 0.0 40  ! K
 0.0000 0.0000 0.0 30  ! Gamma 
