&CONTROL
  calculation = 'nscf'
  etot_conv_thr =   3.0000000000d-05
  forc_conv_thr =   1.0000000000d-04
  outdir = './out/'
  prefix = 'mos2'
  pseudo_dir = './'
  tprnfor = .true.
  tstress = .true.
  verbosity = 'high'
/
&SYSTEM
  degauss =   2.0000000000d-02
  ecutrho =   2.8000000000d+02
  ecutwfc =   3.5000000000d+01
  ibrav = 0
  nat = 3
  nosym = .false.
  ntyp = 2
  occupations = 'smearing'
  smearing = 'cold'
  nbnd = 144
/
&ELECTRONS
  conv_thr =   6.0000000000d-10
  electron_maxstep = 80
  mixing_beta =   4.0000000000d-01
/
ATOMIC_SPECIES
Mo  95.94   Mo.pbe-spn-rrkjus_psl.1.0.0.UPF
S   32.065  S.pbe-nl-rrkjus_psl.1.0.0.UPF
ATOMIC_POSITIONS crystal
Mo           0.0000000000       0.0000000000       0.0000000000
S            0.3333333300       0.6666666700       0.0897320000
S            0.3333333300       0.6666666700       0.9102680000
CELL_PARAMETERS angstrom
      3.1903153900       0.0000000000       0.0000000000
     -1.5951576950       2.7628941738       0.0000000000
      0.0000000000       0.0000000000      17.4395020000
K_POINTS crystal
144
  0.00000000  0.00000000  0.00000000  6.944444e-03
  0.00000000  0.08333333  0.00000000  6.944444e-03
  0.00000000  0.16666667  0.00000000  6.944444e-03
  0.00000000  0.25000000  0.00000000  6.944444e-03
  0.00000000  0.33333333  0.00000000  6.944444e-03
  0.00000000  0.41666667  0.00000000  6.944444e-03
  0.00000000  0.50000000  0.00000000  6.944444e-03
  0.00000000  0.58333333  0.00000000  6.944444e-03
  0.00000000  0.66666667  0.00000000  6.944444e-03
  0.00000000  0.75000000  0.00000000  6.944444e-03
  0.00000000  0.83333333  0.00000000  6.944444e-03
  0.00000000  0.91666667  0.00000000  6.944444e-03
  0.08333333  0.00000000  0.00000000  6.944444e-03
  0.08333333  0.08333333  0.00000000  6.944444e-03
  0.08333333  0.16666667  0.00000000  6.944444e-03
  0.08333333  0.25000000  0.00000000  6.944444e-03
  0.08333333  0.33333333  0.00000000  6.944444e-03
  0.08333333  0.41666667  0.00000000  6.944444e-03
  0.08333333  0.50000000  0.00000000  6.944444e-03
  0.08333333  0.58333333  0.00000000  6.944444e-03
  0.08333333  0.66666667  0.00000000  6.944444e-03
  0.08333333  0.75000000  0.00000000  6.944444e-03
  0.08333333  0.83333333  0.00000000  6.944444e-03
  0.08333333  0.91666667  0.00000000  6.944444e-03
  0.16666667  0.00000000  0.00000000  6.944444e-03
  0.16666667  0.08333333  0.00000000  6.944444e-03
  0.16666667  0.16666667  0.00000000  6.944444e-03
  0.16666667  0.25000000  0.00000000  6.944444e-03
  0.16666667  0.33333333  0.00000000  6.944444e-03
  0.16666667  0.41666667  0.00000000  6.944444e-03
  0.16666667  0.50000000  0.00000000  6.944444e-03
  0.16666667  0.58333333  0.00000000  6.944444e-03
  0.16666667  0.66666667  0.00000000  6.944444e-03
  0.16666667  0.75000000  0.00000000  6.944444e-03
  0.16666667  0.83333333  0.00000000  6.944444e-03
  0.16666667  0.91666667  0.00000000  6.944444e-03
  0.25000000  0.00000000  0.00000000  6.944444e-03
  0.25000000  0.08333333  0.00000000  6.944444e-03
  0.25000000  0.16666667  0.00000000  6.944444e-03
  0.25000000  0.25000000  0.00000000  6.944444e-03
  0.25000000  0.33333333  0.00000000  6.944444e-03
  0.25000000  0.41666667  0.00000000  6.944444e-03
  0.25000000  0.50000000  0.00000000  6.944444e-03
  0.25000000  0.58333333  0.00000000  6.944444e-03
  0.25000000  0.66666667  0.00000000  6.944444e-03
  0.25000000  0.75000000  0.00000000  6.944444e-03
  0.25000000  0.83333333  0.00000000  6.944444e-03
  0.25000000  0.91666667  0.00000000  6.944444e-03
  0.33333333  0.00000000  0.00000000  6.944444e-03
  0.33333333  0.08333333  0.00000000  6.944444e-03
  0.33333333  0.16666667  0.00000000  6.944444e-03
  0.33333333  0.25000000  0.00000000  6.944444e-03
  0.33333333  0.33333333  0.00000000  6.944444e-03
  0.33333333  0.41666667  0.00000000  6.944444e-03
  0.33333333  0.50000000  0.00000000  6.944444e-03
  0.33333333  0.58333333  0.00000000  6.944444e-03
  0.33333333  0.66666667  0.00000000  6.944444e-03
  0.33333333  0.75000000  0.00000000  6.944444e-03
  0.33333333  0.83333333  0.00000000  6.944444e-03
  0.33333333  0.91666667  0.00000000  6.944444e-03
  0.41666667  0.00000000  0.00000000  6.944444e-03
  0.41666667  0.08333333  0.00000000  6.944444e-03
  0.41666667  0.16666667  0.00000000  6.944444e-03
  0.41666667  0.25000000  0.00000000  6.944444e-03
  0.41666667  0.33333333  0.00000000  6.944444e-03
  0.41666667  0.41666667  0.00000000  6.944444e-03
  0.41666667  0.50000000  0.00000000  6.944444e-03
  0.41666667  0.58333333  0.00000000  6.944444e-03
  0.41666667  0.66666667  0.00000000  6.944444e-03
  0.41666667  0.75000000  0.00000000  6.944444e-03
  0.41666667  0.83333333  0.00000000  6.944444e-03
  0.41666667  0.91666667  0.00000000  6.944444e-03
  0.50000000  0.00000000  0.00000000  6.944444e-03
  0.50000000  0.08333333  0.00000000  6.944444e-03
  0.50000000  0.16666667  0.00000000  6.944444e-03
  0.50000000  0.25000000  0.00000000  6.944444e-03
  0.50000000  0.33333333  0.00000000  6.944444e-03
  0.50000000  0.41666667  0.00000000  6.944444e-03
  0.50000000  0.50000000  0.00000000  6.944444e-03
  0.50000000  0.58333333  0.00000000  6.944444e-03
  0.50000000  0.66666667  0.00000000  6.944444e-03
  0.50000000  0.75000000  0.00000000  6.944444e-03
  0.50000000  0.83333333  0.00000000  6.944444e-03
  0.50000000  0.91666667  0.00000000  6.944444e-03
  0.58333333  0.00000000  0.00000000  6.944444e-03
  0.58333333  0.08333333  0.00000000  6.944444e-03
  0.58333333  0.16666667  0.00000000  6.944444e-03
  0.58333333  0.25000000  0.00000000  6.944444e-03
  0.58333333  0.33333333  0.00000000  6.944444e-03
  0.58333333  0.41666667  0.00000000  6.944444e-03
  0.58333333  0.50000000  0.00000000  6.944444e-03
  0.58333333  0.58333333  0.00000000  6.944444e-03
  0.58333333  0.66666667  0.00000000  6.944444e-03
  0.58333333  0.75000000  0.00000000  6.944444e-03
  0.58333333  0.83333333  0.00000000  6.944444e-03
  0.58333333  0.91666667  0.00000000  6.944444e-03
  0.66666667  0.00000000  0.00000000  6.944444e-03
  0.66666667  0.08333333  0.00000000  6.944444e-03
  0.66666667  0.16666667  0.00000000  6.944444e-03
  0.66666667  0.25000000  0.00000000  6.944444e-03
  0.66666667  0.33333333  0.00000000  6.944444e-03
  0.66666667  0.41666667  0.00000000  6.944444e-03
  0.66666667  0.50000000  0.00000000  6.944444e-03
  0.66666667  0.58333333  0.00000000  6.944444e-03
  0.66666667  0.66666667  0.00000000  6.944444e-03
  0.66666667  0.75000000  0.00000000  6.944444e-03
  0.66666667  0.83333333  0.00000000  6.944444e-03
  0.66666667  0.91666667  0.00000000  6.944444e-03
  0.75000000  0.00000000  0.00000000  6.944444e-03
  0.75000000  0.08333333  0.00000000  6.944444e-03
  0.75000000  0.16666667  0.00000000  6.944444e-03
  0.75000000  0.25000000  0.00000000  6.944444e-03
  0.75000000  0.33333333  0.00000000  6.944444e-03
  0.75000000  0.41666667  0.00000000  6.944444e-03
  0.75000000  0.50000000  0.00000000  6.944444e-03
  0.75000000  0.58333333  0.00000000  6.944444e-03
  0.75000000  0.66666667  0.00000000  6.944444e-03
  0.75000000  0.75000000  0.00000000  6.944444e-03
  0.75000000  0.83333333  0.00000000  6.944444e-03
  0.75000000  0.91666667  0.00000000  6.944444e-03
  0.83333333  0.00000000  0.00000000  6.944444e-03
  0.83333333  0.08333333  0.00000000  6.944444e-03
  0.83333333  0.16666667  0.00000000  6.944444e-03
  0.83333333  0.25000000  0.00000000  6.944444e-03
  0.83333333  0.33333333  0.00000000  6.944444e-03
  0.83333333  0.41666667  0.00000000  6.944444e-03
  0.83333333  0.50000000  0.00000000  6.944444e-03
  0.83333333  0.58333333  0.00000000  6.944444e-03
  0.83333333  0.66666667  0.00000000  6.944444e-03
  0.83333333  0.75000000  0.00000000  6.944444e-03
  0.83333333  0.83333333  0.00000000  6.944444e-03
  0.83333333  0.91666667  0.00000000  6.944444e-03
  0.91666667  0.00000000  0.00000000  6.944444e-03
  0.91666667  0.08333333  0.00000000  6.944444e-03
  0.91666667  0.16666667  0.00000000  6.944444e-03
  0.91666667  0.25000000  0.00000000  6.944444e-03
  0.91666667  0.33333333  0.00000000  6.944444e-03
  0.91666667  0.41666667  0.00000000  6.944444e-03
  0.91666667  0.50000000  0.00000000  6.944444e-03
  0.91666667  0.58333333  0.00000000  6.944444e-03
  0.91666667  0.66666667  0.00000000  6.944444e-03
  0.91666667  0.75000000  0.00000000  6.944444e-03
  0.91666667  0.83333333  0.00000000  6.944444e-03
  0.91666667  0.91666667  0.00000000  6.944444e-03
