&CONTROL
  calculation = 'scf'
  etot_conv_thr =   3.0000000000d-05
  forc_conv_thr =   1.0000000000d-04
  outdir = './out/'
  prefix = 'mos2'
  pseudo_dir = './'
  tprnfor = .true.
  tstress = .true.
  verbosity = 'high'
/
&SYSTEM
  degauss =   2.0000000000d-02
  ecutrho =   2.8000000000d+02
  ecutwfc =   3.5000000000d+01
  ibrav = 0
  nat = 3
  nosym = .false.
  ntyp = 2
  occupations = 'smearing'
  smearing = 'cold'
/
&ELECTRONS
  conv_thr =   6.0000000000d-10
  electron_maxstep = 80
  mixing_beta =   4.0000000000d-01
/
ATOMIC_SPECIES
Mo  95.94   Mo.pbe-spn-rrkjus_psl.1.0.0.UPF
S   32.065  S.pbe-nl-rrkjus_psl.1.0.0.UPF
ATOMIC_POSITIONS crystal
Mo           0.0000000000       0.0000000000       0.0000000000
S            0.3333333300       0.6666666700       0.0897320000
S            0.3333333300       0.6666666700       0.9102680000
K_POINTS automatic
12 12 1 0 0 0
CELL_PARAMETERS angstrom
      3.1903153900       0.0000000000       0.0000000000
     -1.5951576950       2.7628941738       0.0000000000
      0.0000000000       0.0000000000      17.4395020000
